Normalized Data/p04_3_normalized_split0.vrp
NAME:p04_3_NORMALIZED_split
BEST_KNOWN: 0
COMMENT: 0
DIMENSION: 638
CAPACITY: 100
EDGE_WEIGHT_FORMAT: FUNCTION
EDGE_WEIGHT_TYPE: EXACT_2D
NODE_COORD_SECTION
1 0.00000 0.00000
2 -2 34
3 -2 34
4 -2 34
5 43 8
6 43 8
7 43 8
8 43 8
9 43 8
10 43 8
11 43 8
12 11 14
13 11 14
14 11 14
15 -22 -23
16 -22 -23
17 -22 -23
18 -25 38
19 -25 38
20 -25 38
21 -25 38
22 -25 38
23 -13 42
24 -13 42
25 -13 42
26 -13 42
27 -13 42
28 -13 42
29 -41 -36
30 -41 -36
31 -41 -36
32 -12 -30
33 -12 -30
34 -12 -30
35 -2 37
36 -2 37
37 -2 37
38 -2 37
39 -2 37
40 9 -1
41 9 -1
42 9 -1
43 9 -1
44 -45 -11
45 -45 -11
46 -45 -11
47 -45 -11
48 -41 -7
49 -41 -7
50 -41 -7
51 9 -43
52 9 -43
53 9 -43
54 9 -43
55 9 -43
56 -42 -42
57 -42 -42
58 -42 -42
59 -42 -42
60 -42 -42
61 48 -42
62 48 -42
63 48 -42
64 48 -42
65 46 22
66 46 22
67 46 22
68 46 22
69 46 22
70 19 16
71 19 16
72 19 16
73 19 16
74 19 16
75 19 16
76 -37 26
77 -37 26
78 -37 26
79 -37 26
80 12 14
81 12 14
82 12 14
83 12 14
84 12 14
85 33 44
86 33 44
87 33 44
88 33 44
89 33 44
90 43 -40
91 43 -40
92 43 -40
93 43 -40
94 43 -40
95 43 -40
96 35 -19
97 35 -19
98 35 -19
99 35 -19
100 19 -8
101 19 -8
102 19 -8
103 19 -8
104 -16 34
105 -16 34
106 -16 34
107 -16 34
108 24 -46
109 24 -46
110 24 -46
111 24 -46
112 24 -46
113 -2 -24
114 -2 -24
115 -2 -24
116 -2 -24
117 -2 -24
118 -2 -24
119 -30 38
120 -30 38
121 -30 38
122 -30 38
123 -18 -49
124 -18 -49
125 -18 -49
126 -18 -49
127 -37 28
128 -37 28
129 -37 28
130 -37 28
131 -37 28
132 -2 31
133 -2 31
134 -2 31
135 -2 31
136 23 13
137 23 13
138 23 13
139 23 13
140 23 13
141 -20 -34
142 -20 -34
143 -20 -34
144 -19 32
145 -19 32
146 -19 32
147 -19 32
148 50 -21
149 50 -21
150 -27 1
151 -27 1
152 -27 1
153 -27 1
154 20 -7
155 20 -7
156 20 -7
157 20 -7
158 20 -7
159 -9 50
160 -9 50
161 -9 50
162 -9 50
163 -25 -36
164 -25 -36
165 -25 -36
166 -25 -36
167 -25 -36
168 -25 -36
169 -30 -24
170 -30 -24
171 -30 -24
172 -30 -24
173 -30 -24
174 -30 -24
175 -42 7
176 -42 7
177 -42 7
178 -42 7
179 -42 7
180 -42 7
181 -42 7
182 -21 -10
183 -21 -10
184 -21 -10
185 -21 -10
186 -21 -10
187 -21 -10
188 48 41
189 48 41
190 48 41
191 -15 23
192 -15 23
193 -15 23
194 -24 22
195 11 21
196 11 21
197 11 21
198 -33 -28
199 -33 -28
200 -33 -28
201 -20 -30
202 -20 -30
203 -20 -30
204 -20 -30
205 -20 -39
206 -20 -39
207 -20 -39
208 -20 -39
209 -20 -39
210 -34 50
211 -34 50
212 -34 50
213 42 11
214 42 11
215 43 -36
216 43 -36
217 43 -36
218 43 -36
219 -43 18
220 -43 18
221 -43 18
222 -43 18
223 -43 18
224 24 -21
225 24 -21
226 24 -21
227 24 -21
228 24 -21
229 24 -21
230 -21 -41
231 -21 -41
232 -21 -41
233 -21 -41
234 -21 -41
235 43 17
236 43 17
237 43 17
238 43 17
239 6 -47
240 6 -47
241 6 -47
242 6 -47
243 6 -47
244 -1 -17
245 -1 -17
246 -1 -17
247 -1 -17
248 -25 39
249 -25 39
250 -25 39
251 38 25
252 -35 -1
253 -35 -1
254 -35 -1
255 34 -28
256 -44 -32
257 -44 -32
258 -44 -32
259 -44 -32
260 -44 -32
261 -44 -32
262 28 -17
263 28 -17
264 28 -17
265 28 -17
266 -49 30
267 -49 30
268 -49 30
269 -49 30
270 -49 30
271 -49 30
272 38 27
273 38 27
274 38 27
275 7 7
276 7 7
277 7 7
278 7 7
279 7 7
280 -25 -32
281 -25 -32
282 -25 -32
283 -25 -32
284 -25 -32
285 -25 -32
286 16 35
287 16 35
288 16 35
289 16 35
290 -41 -46
291 -41 -46
292 -41 -46
293 -41 -46
294 15 -50
295 15 -50
296 15 -50
297 15 -50
298 15 -50
299 -38 3
300 -38 3
301 -38 3
302 -38 3
303 -38 3
304 49 27
305 49 27
306 49 27
307 49 27
308 49 27
309 -40 -34
310 -40 -34
311 -40 -34
312 -20 -47
313 -20 -47
314 -20 -47
315 -20 -47
316 -20 -47
317 19 15
318 19 15
319 19 15
320 19 15
321 19 15
322 19 15
323 -36 -27
324 -36 -27
325 34 -9
326 34 -9
327 34 -9
328 34 -9
329 -10 12
330 -10 12
331 1 -24
332 1 -24
333 1 -24
334 37 48
335 37 48
336 37 48
337 37 48
338 37 48
339 37 48
340 28 16
341 28 16
342 28 16
343 -37 11
344 -37 11
345 -37 11
346 -37 11
347 46 39
348 46 39
349 46 39
350 46 39
351 -4 -6
352 -4 -6
353 -4 -6
354 -4 -6
355 -44 -39
356 -44 -39
357 -1 -50
358 -1 -50
359 -1 -50
360 50 45
361 50 45
362 27 -27
363 27 -27
364 20 4
365 20 4
366 20 4
367 20 4
368 20 4
369 43 3
370 43 3
371 43 3
372 43 3
373 43 3
374 43 3
375 -7 -42
376 -7 -42
377 -7 -42
378 -7 -42
379 46 15
380 46 15
381 46 15
382 46 15
383 -35 9
384 -35 9
385 -35 9
386 -35 9
387 -35 9
388 -35 9
389 -35 9
390 35 19
391 35 19
392 35 19
393 35 19
394 35 19
395 35 19
396 29 -4
397 29 -4
398 29 -4
399 29 -4
400 29 -4
401 -6 10
402 -6 10
403 -11 23
404 -11 23
405 -34 -13
406 -34 -13
407 -34 -13
408 -34 -13
409 -34 -13
410 -48 -26
411 -48 -26
412 -47 22
413 -47 22
414 -47 22
415 -47 22
416 -47 22
417 18 -31
418 18 -31
419 18 -31
420 18 -31
421 18 -31
422 18 -31
423 39 36
424 39 36
425 39 36
426 39 36
427 5 26
428 5 26
429 5 26
430 5 26
431 5 26
432 5 26
433 -8 -50
434 -8 -50
435 -8 -50
436 -8 -50
437 -8 -50
438 -8 -50
439 -43 -35
440 -43 -35
441 -43 -35
442 -43 -35
443 25 -15
444 25 -15
445 25 -15
446 25 -15
447 25 -15
448 38 14
449 38 14
450 38 14
451 38 14
452 38 14
453 -2 -9
454 -2 -9
455 -2 -9
456 -2 -9
457 28 27
458 18 20
459 18 20
460 18 20
461 18 20
462 18 20
463 18 20
464 -8 -37
465 -8 -37
466 -8 -37
467 -8 -37
468 -8 -37
469 -8 -37
470 -39 9
471 -39 9
472 -39 9
473 -39 9
474 -39 9
475 -39 9
476 -39 9
477 -29 19
478 -29 19
479 -29 -27
480 -29 -27
481 -29 -27
482 -29 -27
483 -36 42
484 -36 42
485 -36 42
486 -36 42
487 -36 42
488 -36 42
489 17 24
490 17 24
491 17 24
492 17 24
493 17 24
494 35 46
495 35 46
496 35 46
497 35 46
498 35 46
499 -4 -13
500 -4 -13
501 -4 -13
502 -4 -13
503 -4 -13
504 -50 -30
505 -50 -30
506 -50 -30
507 -50 -30
508 -50 -30
509 -50 -30
510 50 -13
511 50 -13
512 50 -13
513 50 -13
514 50 -13
515 50 -13
516 -17 13
517 -17 13
518 -17 13
519 -17 13
520 -17 13
521 -17 13
522 40 -43
523 40 -43
524 46 20
525 46 20
526 46 20
527 46 20
528 46 20
529 -17 21
530 29 16
531 29 16
532 29 16
533 29 16
534 -42 -45
535 -42 -45
536 -42 -45
537 -42 -45
538 -42 -45
539 -50 15
540 -16 -13
541 -16 -13
542 -16 -13
543 24 -20
544 24 -20
545 24 -20
546 24 -20
547 24 -20
548 28 40
549 28 40
550 28 40
551 28 40
552 28 40
553 28 40
554 -11 -37
555 -11 -37
556 -11 -37
557 41 -12
558 41 -12
559 41 -12
560 41 -12
561 37 33
562 37 33
563 37 33
564 37 33
565 37 33
566 37 33
567 -29 -4
568 -29 -4
569 -29 -4
570 -29 -4
571 -29 -4
572 -29 -4
573 18 -11
574 3 4
575 3 4
576 3 4
577 3 4
578 3 4
579 39 -31
580 39 -31
581 39 -31
582 39 -31
583 39 -31
584 45 46
585 45 46
586 45 46
587 45 46
588 41 25
589 41 25
590 41 25
591 41 25
592 41 25
593 41 25
594 46 -35
595 46 -35
596 46 -35
597 27 7
598 27 7
599 27 7
600 27 7
601 27 7
602 25 -19
603 25 -19
604 25 -19
605 25 -19
606 29 7
607 29 7
608 29 7
609 29 7
610 47 18
611 47 18
612 47 18
613 47 18
614 -3 11
615 -3 11
616 -3 11
617 -3 11
618 -3 11
619 33 4
620 33 4
621 33 4
622 33 4
623 3 -10
624 3 -10
625 3 -10
626 3 -10
627 18 -43
628 18 -43
629 18 -43
630 -11 -48
631 -11 -48
632 -11 -48
633 -11 -48
634 40 -45
635 40 -45
636 40 -45
637 40 -45
638 40 -45
DEMAND_SECTION
1 0
2 10
3 1
4 1
5 20
6 20
7 5
8 1
9 1
10 1
11 1
12 20
13 5
14 1
15 20
16 5
17 1
18 20
19 10
20 5
21 1
22 1
23 20
24 20
25 1
26 1
27 1
28 1
29 20
30 10
31 5
32 20
33 20
34 1
35 20
36 1
37 1
38 1
39 1
40 10
41 5
42 1
43 1
44 20
45 20
46 5
47 1
48 20
49 10
50 5
51 10
52 5
53 1
54 1
55 1
56 20
57 20
58 5
59 1
60 1
61 10
62 5
63 1
64 1
65 20
66 5
67 1
68 1
69 1
70 20
71 5
72 1
73 1
74 1
75 1
76 20
77 5
78 1
79 1
80 20
81 10
82 5
83 1
84 1
85 20
86 5
87 1
88 1
89 1
90 20
91 20
92 5
93 1
94 1
95 1
96 20
97 20
98 5
99 1
100 20
101 10
102 1
103 1
104 10
105 1
106 1
107 1
108 20
109 20
110 5
111 1
112 1
113 20
114 20
115 5
116 1
117 1
118 1
119 20
120 10
121 1
122 1
123 20
124 20
125 1
126 1
127 10
128 1
129 1
130 1
131 1
132 20
133 10
134 5
135 1
136 20
137 5
138 1
139 1
140 1
141 20
142 5
143 1
144 20
145 20
146 1
147 1
148 20
149 1
150 20
151 10
152 1
153 1
154 10
155 1
156 1
157 1
158 1
159 10
160 5
161 1
162 1
163 20
164 20
165 5
166 1
167 1
168 1
169 20
170 20
171 5
172 1
173 1
174 1
175 20
176 10
177 5
178 1
179 1
180 1
181 1
182 20
183 5
184 1
185 1
186 1
187 1
188 20
189 10
190 1
191 10
192 5
193 1
194 20
195 20
196 5
197 1
198 20
199 5
200 1
201 10
202 1
203 1
204 1
205 20
206 1
207 1
208 1
209 1
210 10
211 5
212 1
213 20
214 10
215 10
216 1
217 1
218 1
219 10
220 1
221 1
222 1
223 1
224 20
225 20
226 5
227 1
228 1
229 1
230 10
231 1
232 1
233 1
234 1
235 20
236 20
237 1
238 1
239 20
240 1
241 1
242 1
243 1
244 20
245 1
246 1
247 1
248 20
249 1
250 1
251 20
252 20
253 20
254 1
255 20
256 20
257 20
258 5
259 1
260 1
261 1
262 20
263 20
264 5
265 1
266 20
267 20
268 1
269 1
270 1
271 1
272 10
273 5
274 1
275 10
276 1
277 1
278 1
279 1
280 20
281 20
282 5
283 1
284 1
285 1
286 20
287 1
288 1
289 1
290 10
291 1
292 1
293 1
294 10
295 5
296 1
297 1
298 1
299 20
300 10
301 5
302 1
303 1
304 20
305 5
306 1
307 1
308 1
309 10
310 5
311 1
312 20
313 5
314 1
315 1
316 1
317 20
318 5
319 1
320 1
321 1
322 1
323 20
324 1
325 20
326 20
327 1
328 1
329 20
330 10
331 20
332 5
333 1
334 20
335 5
336 1
337 1
338 1
339 1
340 20
341 20
342 5
343 20
344 20
345 1
346 1
347 10
348 1
349 1
350 1
351 10
352 1
353 1
354 1
355 10
356 5
357 20
358 10
359 5
360 10
361 5
362 10
363 5
364 10
365 1
366 1
367 1
368 1
369 20
370 20
371 5
372 1
373 1
374 1
375 20
376 20
377 1
378 1
379 10
380 1
381 1
382 1
383 20
384 20
385 5
386 1
387 1
388 1
389 1
390 20
391 20
392 1
393 1
394 1
395 1
396 10
397 5
398 1
399 1
400 1
401 20
402 10
403 20
404 20
405 10
406 1
407 1
408 1
409 1
410 20
411 1
412 20
413 20
414 5
415 1
416 1
417 20
418 10
419 1
420 1
421 1
422 1
423 20
424 20
425 5
426 1
427 20
428 20
429 5
430 1
431 1
432 1
433 20
434 20
435 5
436 1
437 1
438 1
439 20
440 5
441 1
442 1
443 20
444 10
445 5
446 1
447 1
448 20
449 5
450 1
451 1
452 1
453 10
454 5
455 1
456 1
457 20
458 20
459 20
460 1
461 1
462 1
463 1
464 20
465 20
466 5
467 1
468 1
469 1
470 20
471 10
472 5
473 1
474 1
475 1
476 1
477 20
478 5
479 20
480 20
481 1
482 1
483 20
484 10
485 5
486 1
487 1
488 1
489 20
490 5
491 1
492 1
493 1
494 20
495 10
496 1
497 1
498 1
499 20
500 10
501 5
502 1
503 1
504 20
505 10
506 1
507 1
508 1
509 1
510 10
511 5
512 1
513 1
514 1
515 1
516 10
517 5
518 1
519 1
520 1
521 1
522 10
523 5
524 20
525 20
526 5
527 1
528 1
529 20
530 20
531 20
532 1
533 1
534 20
535 10
536 1
537 1
538 1
539 20
540 20
541 20
542 1
543 20
544 10
545 5
546 1
547 1
548 10
549 5
550 1
551 1
552 1
553 1
554 10
555 5
556 1
557 20
558 20
559 5
560 1
561 10
562 5
563 1
564 1
565 1
566 1
567 20
568 20
569 1
570 1
571 1
572 1
573 20
574 20
575 10
576 5
577 1
578 1
579 20
580 10
581 5
582 1
583 1
584 20
585 1
586 1
587 1
588 20
589 5
590 1
591 1
592 1
593 1
594 20
595 5
596 1
597 20
598 10
599 5
600 1
601 1
602 20
603 10
604 1
605 1
606 20
607 10
608 1
609 1
610 20
611 10
612 5
613 1
614 20
615 20
616 5
617 1
618 1
619 10
620 5
621 1
622 1
623 20
624 1
625 1
626 1
627 20
628 10
629 5
630 20
631 1
632 1
633 1
634 20
635 1
636 1
637 1
638 1
DEPOT_SECTION
1
-1
EOF