Normalized Data/p04_3_normalized_split0.sol
637 -7 9 10 4 8 6 5 212 213 447 449 -12 13 11 82 80 79 83 81 274 276 278 275 277 -14 16 186 184 182 185 181 567 566 150 152 -15 58 56 55 57 59 534 536 535 533 537 292 291 289 290 283 -17 18 247 248 249 144 145 146 143 -32 33 31 463 464 467 466 465 468 455 453 454 -36 37 34 38 35 161 160 159 158 25 24 27 26 22 23 103 104 106 105 -41 42 40 39 367 365 366 364 363 606 608 605 607 597 599 598 596 600 -60 61 62 63 595 594 593 582 580 578 581 579 254 -100 101 148 147 512 514 511 513 509 510 558 557 556 559 326 327 -102 99 156 395 399 373 370 372 368 369 371 621 618 620 619 -121 120 119 118 483 484 485 482 487 486 211 209 210 19 21 20 191 192 -133 131 132 134 1 2 3 431 429 426 428 427 430 -136 138 139 340 339 341 531 530 532 529 -137 135 490 488 492 491 489 286 285 287 288 196 195 194 -142 141 140 205 206 208 204 207 163 162 164 166 165 167 202 203 -151 149 299 302 298 301 300 253 252 251 -155 157 154 153 262 264 263 261 446 442 572 -172 168 169 173 170 171 323 322 197 199 198 -179 180 175 176 178 174 177 473 470 471 475 472 343 342 387 385 -183 406 405 407 408 404 43 44 46 45 48 49 47 569 571 568 570 -217 214 215 216 94 90 91 89 92 93 521 522 636 633 635 634 637 -219 220 222 414 269 268 265 270 266 267 126 129 130 127 128 78 75 77 76 518 515 -229 230 233 231 232 313 315 311 312 314 122 124 123 125 553 555 554 -246 245 243 244 116 112 113 117 115 114 330 331 332 -250 587 588 589 590 591 592 305 306 303 307 304 389 391 394 -256 260 258 255 259 507 504 506 505 508 503 409 410 -257 439 440 441 438 354 355 30 29 28 310 308 309 480 -294 296 295 293 297 107 108 111 110 109 626 627 628 -316 317 73 72 71 70 74 69 460 457 462 461 458 459 -319 321 318 320 273 271 272 423 422 425 562 565 564 563 561 560 456 -328 329 528 190 402 403 -336 337 335 333 338 334 493 494 84 86 85 88 87 552 547 -345 344 221 218 413 412 415 411 538 474 469 -351 353 350 540 541 539 499 498 501 502 500 452 -352 201 200 279 280 281 282 284 478 479 481 -374 358 357 356 238 241 239 240 242 53 51 54 52 50 624 625 -375 376 377 434 433 436 435 432 437 631 632 630 629 -380 379 381 378 611 609 610 612 237 235 236 234 448 450 451 -386 383 384 382 388 477 476 193 519 520 517 516 -392 393 390 65 68 66 67 64 526 524 523 527 525 -396 397 398 325 324 98 95 96 97 444 -401 400 614 613 615 617 616 -419 418 421 416 420 417 361 362 228 227 543 544 546 545 542 443 445 -424 349 348 346 347 187 188 189 359 360 584 583 585 586 496 495 497 549 548 550 551 -574 573 576 577 575 -602 601 604 603 224 225 223 226 623 622 0 





OBJ=
4270.357
BEST_KNOWN=
0.000